%rwf=main.rwf
%nprocshared=56
%mem=56GB
%chk=main.chk
#p opt=tight freq b3lyp/6-31++g(d,p) pop=(mk,mbs,saveesp)
geom=connectivity polar extralinks=l608

ROSDSFDQCJNGOL-UHFFFAOYSA-O

1 1
 N                 -0.00010900    0.54075600    0.00009600
 C                  1.26939300   -0.27613200   -0.00004200
 C                 -1.26928000   -0.27624200   -0.00005600
 H                  2.12339400    0.40177700    0.00008800
 H                  1.27790500   -0.89873300    0.89459400
 H                  1.27791800   -0.89840600   -0.89490600
 H                 -2.12352500    0.40138600    0.00006500
 H                 -1.27751000   -0.89855400   -0.89491200
 H                 -1.27751600   -0.89888100    0.89457100
 H                 -0.00029500    1.16003000    0.81767100
 H                 -0.00028600    1.16032600   -0.81725400

 1 2 1.0 3 1.0 10 1.0 11 1.0
 2 4 1.0 5 1.0 6 1.0
 3 7 1.0 8 1.0 9 1.0
 4
 5
 6
 7
 8
 9
 10
 11

-5
